
Gurobi 12.0.2 (win64) logging started Fri Jun  6 10:09:55 2025

Set parameter LogFile to value "C:\Ioana\_uni\honours\slp\algorithm\Main_files\results\others\prox_tubules_new\Task_009_Sample002_irr_gurobi.log"
Gurobi Optimizer version 12.0.2 build v12.0.2rc0 (win64 - Windows 11.0 (26100.2))

CPU model: Intel(R) Core(TM) Ultra 5 125H, instruction set [SSE2|AVX|AVX2]
Thread count: 14 physical cores, 18 logical processors, using up to 18 threads

Non-default parameters:
TimeLimit  2200

Optimize a model with 47658 rows, 34794 columns and 147841 nonzeros
Model fingerprint: 0xf43bdece
Variable types: 17400 continuous, 17394 integer (17394 binary)
Coefficient statistics:
  Matrix range     [1e-04, 8e+04]
  Objective range  [1e-04, 9e-01]
  Bounds range     [1e+00, 1e+03]
  RHS range        [1e+00, 1e+00]
Presolve removed 31249 rows and 21835 columns
Presolve time: 0.30s
Presolved: 16409 rows, 12959 columns, 54592 nonzeros
Variable types: 6413 continuous, 6546 integer (6546 binary)

Root relaxation: objective 3.023447e-04, 3744 iterations, 0.27 seconds (0.58 work units)

    Nodes    |    Current Node    |     Objective Bounds      |     Work
 Expl Unexpl |  Obj  Depth IntInf | Incumbent    BestBd   Gap | It/Node Time

     0     0    0.00030    0   14          -    0.00030      -     -    0s
H    0     0                       0.1843602    0.00030   100%     -    0s
H    0     0                       0.1383397    0.00030   100%     -    0s
     0     0    0.00540    0   20    0.13834    0.00540  96.1%     -    0s
     0     0    0.07345    0    2    0.13834    0.07345  46.9%     -    0s
     0     0     cutoff    0         0.13834    0.13834  0.00%     -    0s

Cutting planes:
  Gomory: 1
  Cover: 1
  MIR: 1
  Flow cover: 3
  Flow path: 2
  Network: 3

Explored 1 nodes (3897 simplex iterations) in 0.92 seconds (1.22 work units)
Thread count was 18 (of 18 available processors)

Solution count 3: 0.13834 0.13834 0.18436 

Optimal solution found (tolerance 1.00e-04)
Best objective 1.383396805214e-01, best bound 1.383396805214e-01, gap 0.0000%
